
Gurobi 9.5.0 (win64) logging started Tue Dec  7 12:39:26 2021

Set parameter LogFile to value "../results/logs/log_2021_12_07_12_26.csv_6_80.log"
Set parameter Method to value 3
Gurobi Optimizer version 9.5.0 build v9.5.0rc5 (win64)
Thread count: 6 physical cores, 12 logical processors, using up to 12 threads
Optimize a model with 1039 rows, 9882 columns and 16749 nonzeros
Model fingerprint: 0xc01dc3cd
Variable types: 4941 continuous, 4941 integer (4941 binary)
Coefficient statistics:
  Matrix range     [1e+00, 6e+00]
  Objective range  [1e+00, 1e+00]
  Bounds range     [1e+00, 1e+00]
  RHS range        [1e+00, 8e+01]
Found heuristic solution: objective -0.0000000
Presolve removed 585 rows and 9150 columns
Presolve time: 0.02s
Presolved: 454 rows, 732 columns, 2692 nonzeros
Extracted 154 lazy constraints
Variable types: 413 continuous, 319 integer (317 binary)

Concurrent LP optimizer: primal simplex, dual simplex, and barrier
Showing barrier log only...

Root barrier log...

Ordering time: 0.00s

Barrier statistics:
 AA' NZ     : 5.250e+02
 Factor NZ  : 1.997e+03
 Factor Ops : 2.133e+04 (less than 1 second per iteration)
 Threads    : 1

Barrier performed 0 iterations in 0.03 seconds (0.02 work units)
Barrier solve interrupted - model solved by another algorithm


Solved with dual simplex

Root relaxation: objective 3.380000e+02, 137 iterations, 0.00 seconds (0.00 work units)

    Nodes    |    Current Node    |     Objective Bounds      |     Work
 Expl Unexpl |  Obj  Depth IntInf | Incumbent    BestBd   Gap | It/Node Time

     0     0  134.39590    0  145   -0.00000  134.39590      -     -    0s
     0     0   86.37112    0   77   -0.00000   86.37112      -     -    0s
     0     0   85.90290    0   78   -0.00000   85.90290      -     -    0s
     0     0   85.84965    0   76   -0.00000   85.84965      -     -    0s
     0     0   81.90761    0   51   -0.00000   81.90761      -     -    0s
     0     0   81.44038    0   52   -0.00000   81.44038      -     -    0s
     0     0   81.37960    0   47   -0.00000   81.37960      -     -    0s
     0     0   80.37898    0   46   -0.00000   80.37898      -     -    0s
     0     0   80.25435    0   61   -0.00000   80.25435      -     -    0s
     0     0   80.21655    0   55   -0.00000   80.21655      -     -    0s
     0     0   79.91366    0   57   -0.00000   79.91366      -     -    0s
     0     0   79.91366    0   57   -0.00000   79.91366      -     -    0s
H    0     0                      74.0000000   79.91366  7.99%     -    0s
     0     2   79.91366    0   57   74.00000   79.91366  7.99%     -    0s
H  119   128                      76.0000000   79.64037  4.79%  21.3    0s
H  256   229                      78.0000000   79.60410  2.06%  20.0    0s

Cutting planes:
  Gomory: 57
  Implied bound: 17
  MIR: 155
  RLT: 21
  Relax-and-lift: 21
  Lazy constraints: 146

Explored 497 nodes (8183 simplex iterations) in 0.41 seconds (0.26 work units)
Thread count was 12 (of 12 available processors)

Solution count 4: 78 76 74 -0 

Optimal solution found (tolerance 1.00e-04)
Best objective 7.800000000000e+01, best bound 7.800000000000e+01, gap 0.0000%
